(declare-fun var0 () String)
(assert (str.in.re var0 (re.++ (re.union (re.* (str.to.re "ee")) (re.* (str.to.re "f"))) (re.++ (re.* (re.+ (str.to.re "d"))) (re.++ (re.+ (re.+ (str.to.re "c"))) (re.++ (re.union (re.* (str.to.re "aa")) (re.* (str.to.re "b"))) (re.++ (re.union (re.+ (str.to.re "88")) (re.+ (str.to.re "99"))) (re.++ (re.+ (re.* (str.to.re "777"))) (re.++ (re.* (re.* (str.to.re "6"))) (re.++ (re.union (re.union (str.to.re "2") (str.to.re "33")) (re.union (str.to.re "44") (str.to.re "555"))) (re.++ (re.* (re.* (str.to.re "1"))) (re.* (re.+ (str.to.re "000"))))))))))))))
(assert (<= 276 (str.len var0)))
(check-sat)